13662
71
5741
1718
79
5711
26276
2937
798
467
5215
5891
1340
5504
2911
17029
1452
360
1781
17325
436
17502
16035
26270
5433
10283
5866
6088
1645
2814
59
1501
17934
132
10711
5945
16797
3030
734
38741
432
3141
27918
3735
692
2857
2610
10162
10552
1669
3127
10631
49
38795
2714
161
5458
10377
441
184
18077
1634
16889
887
10968
2753
1270
9556
27
290
148
5326
9653
1342
5700
556
10150
17920
9856
1274
28445
10257
17063
9919
2580
2315
1603
243
0
5627
2935
609
162
5667
181
2836
11396
792
117
316
